210353.63,22.05,24.15
207451.78,22.35,24.48
192588.42,24.08,26.37
212016.23,21.87,23.96
195401.65,23.73,25.99
194515.42,23.84,26.11
208197.93,22.27,24.4
206966.28,22.41,24.54
215299.92,21.54,23.59
205514.05,22.56,24.72
201083.17,23.06,25.26
228099.24,20.33,22.27
201668.44,22.99,25.19
214071.07,21.66,23.73
198255.67,23.39,25.62
209042.79,22.18,24.3
200304.51,23.15,25.36
209567.93,22.13,24.24
196104.56,23.65,25.9
209157.92,22.17,24.29
